 Code   732
 Dimension, Fixed Cost
   100        3000
 Facility, Client, Transportation Cost
     1        1           3
     1        3           4
     1        9           4
     1       19           2
     1       29           3
     1       33           2
     1       42           4
     1       45           2
     1       47           4
     1       58           2
     1       77           1
     1       85           0
     1       91           3
     1       95           3
     2       52           4
     2       63           2
     2       91           2
     2       95           0
     3        9           0
     3       12           1
     3       18           0
     3       39           2
     3       44           1
     3       52           1
     3       53           2
     3       61           0
     3       69           0
     3       71           3
     3       72           4
     3       77           0
     3       87           1
     3       90           2
     3       91           0
     3       92           4
     3      100           1
     4       10           1
     4       30           4
     4       44           4
     4       61           0
     4       62           1
     4       67           1
     4       73           1
     4       80           4
     4       94           0
     5        8           3
     5       11           1
     5       13           2
     5       14           1
     5       19           3
     5       25           1
     5       31           2
     5       35           1
     5       36           3
     5       54           0
     5       63           3
     5       67           1
     5       87           1
     5       96           4
     6        9           1
     6       34           3
     6       44           0
     6       55           2
     6       56           3
     6       65           2
     6       76           1
     6       77           3
     6       81           0
     6       85           1
     7       11           1
     7       17           1
     7       24           3
     7       28           1
     7       29           4
     7       30           1
     7       38           3
     7       58           2
     7       72           0
     7       81           2
     7       99           4
     8        4           0
     8        8           0
     8       29           4
     8       36           2
     8       78           4
     8       83           4
     8       93           2
     9        3           1
     9       47           4
     9       51           1
     9       59           4
     9       60           2
     9       76           3
     9       83           3
     9       84           0
     9       88           0
     9       89           2
     9       94           1
    10       41           4
    10       67           2
    10       81           0
    10       88           4
    11        2           2
    11        5           4
    11       24           2
    11       29           3
    11       49           1
    11       64           1
    11       72           1
    11       87           0
    11       99           0
    12       12           2
    12       38           1
    12       45           2
    12       59           4
    12       79           4
    12       85           4
    12       87           2
    13       15           3
    13       44           0
    13       55           0
    13       60           3
    13       65           0
    13       73           4
    13       77           0
    13       82           0
    13       93           4
    14       11           0
    14       15           2
    14       41           2
    14       48           1
    14       52           2
    14       90           4
    14       94           0
    15        4           3
    15       16           1
    15       17           2
    15       18           4
    15       19           3
    15       20           3
    15       21           2
    15       36           4
    15       39           4
    15       40           2
    15       46           3
    15       65           1
    15       76           0
    15       96           1
    16        2           2
    16       17           1
    16       18           2
    16       31           4
    16       39           4
    16       75           2
    16       76           4
    16       96           2
    17        7           3
    17       19           0
    17       20           4
    17       35           4
    17       39           0
    17       59           4
    17       60           2
    17       62           2
    17       68           2
    17       80           2
    17       81           2
    17       85           2
    17       88           0
    17       94           0
    18        2           1
    18        4           3
    18        5           2
    18       24           1
    18       36           3
    18       49           4
    18       63           1
    18       67           4
    18       68           1
    18       71           2
    18       82           3
    18       92           4
    18       98           2
    19        7           3
    19       24           3
    19       32           1
    19       50           1
    19       51           1
    19       56           0
    19       57           4
    19       60           0
    19       72           3
    19       75           2
    20        1           0
    20        9           1
    20       18           0
    20       31           1
    20       38           0
    20       43           0
    20       48           0
    20       51           4
    20       55           4
    20       61           3
    20       68           1
    20       71           4
    20       74           2
    20       92           0
    20      100           0
    21       14           4
    21       26           1
    21       31           2
    21       53           4
    21       64           2
    21       72           3
    21       78           1
    21       84           2
    21       87           2
    22       20           1
    22       23           3
    22       43           1
    22       48           2
    22       61           2
    22       68           3
    22       73           1
    22       78           1
    23        1           0
    23        9           3
    23       12           3
    23       22           2
    23       24           0
    23       38           3
    23       46           3
    23       56           0
    23       66           1
    23       72           4
    23       74           3
    23       77           1
    23       78           1
    23       87           4
    23       88           1
    23       89           4
    24        6           4
    24       11           4
    24       14           3
    24       16           1
    24       23           0
    24       25           0
    24       41           2
    24       50           3
    24       60           4
    24       62           0
    24       70           0
    24       79           0
    24       85           3
    24       95           3
    25       10           3
    25       18           4
    25       25           2
    25       28           3
    25       37           1
    25       42           4
    25       43           4
    25       45           1
    25       48           3
    25       50           3
    25       51           2
    25       57           2
    25       73           4
    25       81           2
    25       83           2
    26        1           0
    26        8           4
    26       10           0
    26       19           0
    26       25           0
    26       48           4
    26       52           1
    26       58           2
    26       60           1
    26       68           4
    26       73           1
    26       94           0
    26      100           4
    27       12           4
    27       36           4
    27       37           3
    27       39           4
    27       40           1
    27       85           4
    27       91           1
    27       95           1
    28        2           1
    28        7           0
    28       10           4
    28       14           4
    28       23           1
    28       28           0
    28       43           3
    28       49           3
    28       56           0
    28       81           3
    28       94           2
    28       97           0
    29        3           0
    29       11           3
    29       27           3
    29       33           0
    29       34           1
    29       48           3
    29       66           3
    29       82           0
    29       96           2
    29       99           1
    30        6           1
    30       27           4
    30       33           3
    30       35           0
    30       44           0
    30       59           2
    30       86           4
    30       93           0
    30       98           3
    30      100           3
    31        4           0
    31        6           1
    31        7           0
    31       15           0
    31       22           4
    31       23           3
    31       32           1
    31       34           2
    31       46           0
    31       47           1
    31       50           1
    31       55           3
    31       57           3
    31       69           4
    31       76           2
    31       86           3
    31       98           4
    32       17           1
    32       22           2
    32       24           4
    32       34           1
    32       36           3
    32       66           1
    32       72           2
    33       15           3
    33       31           3
    33       32           4
    33       34           2
    33       44           2
    33       65           2
    33       69           0
    33       70           4
    33       71           3
    33       93           1
    34       27           0
    34       35           0
    34       36           4
    34       41           4
    34       54           4
    34       58           0
    34       71           4
    34       79           1
    34       83           0
    35       34           1
    35       57           4
    35       78           3
    35       93           3
    36        2           4
    36        7           1
    36       17           3
    36       20           1
    36       40           3
    36       47           3
    36       75           4
    36       79           4
    36       82           4
    36       87           4
    36       91           3
    36       94           1
    37        1           4
    37        3           1
    37       20           2
    37       41           1
    37       51           3
    37       54           2
    37       59           4
    37       67           1
    37       75           4
    37       81           1
    37       82           1
    37       84           1
    37       86           4
    37       90           4
    38        8           0
    38       31           4
    38       84           1
    38       97           4
    39        8           4
    39       26           0
    39       44           0
    39       45           0
    39       46           0
    39       53           0
    39       78           0
    39       79           2
    39       87           4
    39       96           1
    40       13           1
    40       17           0
    40       21           4
    40       27           1
    40       31           3
    40       35           4
    40       43           0
    40       54           2
    40       64           3
    40       65           3
    40       97           1
    41       13           1
    41       17           2
    41       20           3
    41       37           1
    41       40           2
    41       51           2
    41       52           0
    41       62           2
    41       70           0
    41      100           3
    42       73           2
    42       75           1
    42       77           0
    42       83           3
    42       90           2
    42       91           1
    42       93           0
    42       99           4
    43       13           0
    43       20           2
    43       32           2
    43       42           4
    43       43           3
    43       54           4
    43       60           2
    43       73           2
    43       96           4
    43       98           1
    43       99           2
    44        6           1
    44       15           2
    44       22           4
    44       24           3
    44       26           3
    44       28           1
    44       30           2
    44       31           4
    44       32           3
    44       34           2
    44       51           1
    44       57           3
    44       71           1
    44       97           4
    44       99           4
    45        1           1
    45        4           3
    45       26           4
    45       52           3
    45       55           4
    45       77           0
    45       82           3
    45       86           0
    45       89           2
    45       92           0
    45       98           1
    46        3           1
    46        8           1
    46       19           4
    46       46           1
    46       54           1
    46       59           1
    46       62           1
    46       78           0
    47        9           1
    47       10           1
    47       91           2
    47       94           1
    47       96           4
    48       19           1
    48       22           1
    48       35           1
    48       39           2
    48       57           4
    48       69           1
    48       74           0
    48       89           4
    48       96           2
    49        5           2
    49       12           4
    49       37           2
    49       41           1
    49       55           4
    49       62           2
    49       63           2
    49       70           2
    49       90           2
    49       96           4
    50       25           1
    50       27           1
    50       32           0
    50       55           3
    50       60           1
    50       85           4
    50       86           3
    50       87           3
    50       92           0
    51       17           2
    51       23           1
    51       24           0
    51       37           3
    51       47           4
    51       52           2
    51       53           4
    51       56           3
    51       62           4
    51       66           3
    51       70           4
    51       73           4
    51       92           2
    52        8           1
    52       22           4
    52       30           3
    52       37           0
    52       47           4
    52       61           1
    52       63           3
    52       66           0
    52       83           2
    52       90           3
    52       95           1
    53        7           4
    53       33           1
    53       37           2
    53       38           0
    53       39           3
    53       49           3
    53       65           2
    53       66           0
    53       68           3
    53       69           2
    53       74           2
    53       79           4
    53       92           3
    53       95           4
    53       97           0
    54       12           0
    54       28           2
    54       30           0
    54       39           3
    54       52           2
    54       62           0
    54       65           3
    54       88           0
    55        2           1
    55        9           0
    55       16           1
    55       49           2
    55       51           2
    55       53           2
    55       54           1
    55       58           4
    55       70           2
    56        3           0
    56       12           4
    56       21           2
    56       53           4
    56       74           1
    56       89           1
    57        5           3
    57       11           0
    57       13           0
    57       19           3
    57       66           4
    57       76           3
    57       82           3
    57       83           4
    57       91           3
    58        2           3
    58        8           1
    58       21           4
    58       33           4
    58       40           1
    58       43           2
    58       46           2
    58       64           2
    58       78           1
    58       80           4
    58       95           2
    59        2           1
    59       11           4
    59       15           3
    59       19           4
    59       21           1
    59       26           2
    59       27           3
    59       30           0
    59       36           3
    59       41           2
    59       59           1
    59       64           3
    59       67           0
    59       78           4
    59       83           1
    59       93           1
    60        3           3
    60        5           4
    60        9           0
    60       10           3
    60       26           3
    60       27           3
    60       41           3
    60       50           3
    60       56           1
    60       58           3
    61        7           0
    61       19           3
    61       21           4
    61       22           1
    61       28           2
    61       45           0
    61       56           3
    61       65           1
    61       77           0
    61       84           3
    61       88           0
    62        5           1
    62       26           1
    62       28           4
    62       54           0
    62       61           4
    62       82           1
    63       49           3
    63       54           2
    63       62           3
    63       64           3
    63       69           3
    63       72           2
    63       73           3
    63       89           2
    64       16           3
    64       33           1
    64       63           3
    64       75           3
    64       79           3
    64       81           2
    64       97           2
    64       98           2
    65        3           4
    65       17           2
    65       21           4
    65       23           3
    65       28           1
    65       31           2
    65       48           4
    65       52           2
    65       59           1
    65       67           2
    65       81           4
    65       98           4
    66       20           4
    66       26           1
    66       44           2
    66       47           1
    66       53           0
    66       66           2
    66       74           0
    66       77           0
    66       80           1
    66       85           0
    66       89           2
    67        5           3
    67       25           2
    67       29           3
    67       33           4
    67       41           3
    67       55           0
    67       57           0
    67       82           2
    67       95           0
    68       14           3
    68       20           4
    68       21           0
    68       27           1
    68       36           2
    68       39           0
    68       40           3
    68       68           3
    68       70           1
    68       71           2
    68       88           2
    68       97           0
    68       99           3
    69        7           0
    69        9           4
    69       10           0
    69       11           2
    69       14           4
    69       36           2
    69       38           0
    69       65           0
    69       74           3
    69       75           1
    69       81           2
    69       88           1
    69      100           0
    70       16           4
    70       18           0
    70       35           2
    70       50           3
    70       57           0
    70       74           1
    70       75           2
    70       92           4
    71        3           0
    71        8           4
    71       14           0
    71       24           1
    71       45           2
    71       48           4
    71       70           1
    71       89           2
    71       90           4
    71      100           2
    72        4           1
    72       13           4
    72       34           4
    72       47           2
    72       50           2
    72       78           3
    72       84           4
    72       85           4
    72       96           0
    72      100           4
    73       12           4
    73       16           1
    73       29           1
    73       41           3
    73       42           2
    73       46           1
    73       51           2
    73       52           0
    73       53           3
    73       54           3
    73       56           0
    73       59           4
    73       67           0
    73       73           2
    73       92           3
    74       10           2
    74       13           4
    74       22           2
    74       32           1
    74       49           1
    74       67           4
    74       70           4
    74       71           4
    74       84           2
    74       93           3
    75        4           4
    75        7           3
    75       13           4
    75       25           4
    75       29           0
    75       30           4
    75       35           1
    75       38           1
    75       40           0
    75       60           3
    75       61           4
    75       64           4
    75       97           2
    76        8           2
    76       44           3
    76       64           4
    76       68           4
    76       76           4
    77       46           0
    77       69           3
    77       83           3
    77       86           1
    77       98           0
    77       99           0
    78       13           4
    78       18           2
    78       21           2
    78       47           0
    78       57           2
    78       71           3
    78       76           2
    79        6           2
    79        9           3
    79       42           3
    79       43           4
    79       56           1
    79       59           0
    79       61           1
    79       63           4
    79       84           0
    79       93           1
    79       95           4
    79      100           2
    80        4           4
    80       13           3
    80       14           2
    80       32           4
    80       33           2
    80       53           4
    80       63           2
    80       86           2
    80       98           2
    81        5           2
    81        6           0
    81       18           1
    81       25           2
    81       39           4
    81       49           4
    81       64           1
    81       65           2
    81       94           0
    82       18           1
    82       21           1
    82       38           1
    82       55           2
    82       56           2
    82       79           0
    82       83           2
    82       88           2
    82       92           3
    83        1           0
    83       11           4
    83       28           2
    83       35           0
    83       43           3
    83       48           4
    83       58           0
    83       61           0
    83       63           2
    83       97           3
    84       27           1
    84       42           0
    84       45           0
    84       76           2
    84       97           3
    85        5           0
    85       22           3
    85       32           2
    85       40           4
    85       42           4
    85       44           0
    85       48           2
    85       61           3
    85       74           3
    85       77           4
    85       79           2
    85       80           0
    85       84           4
    86        4           3
    86        6           4
    86       16           2
    86       18           0
    86       34           1
    86       57           2
    86       67           1
    86       79           2
    86       86           2
    86       90           4
    87        2           4
    87       15           3
    87       25           1
    87       47           1
    87       62           2
    87       66           2
    87       74           3
    87       76           1
    87       86           1
    87       99           1
    88        1           4
    88        7           3
    88       37           1
    88       69           1
    88       86           1
    88       90           0
    89        6           3
    89       17           3
    89       23           3
    89       30           3
    89       31           4
    89       32           1
    89       45           1
    89       53           2
    89       80           4
    89       91           4
    89       93           3
    89       98           3
    90        2           4
    90       11           1
    90       15           1
    90       26           4
    90       42           0
    90       45           3
    90       46           3
    90       55           0
    90       80           3
    90       87           2
    91        3           4
    91       14           3
    91       15           3
    91       23           1
    91       35           0
    91       50           2
    91       80           0
    91       85           2
    91       89           1
    91       95           0
    92        6           0
    92       38           0
    92       50           2
    92       60           1
    92       71           1
    93       16           4
    93       33           0
    93       49           1
    93       63           2
    93       68           0
    93       82           4
    93       90           1
    94        1           2
    94       12           3
    94       23           4
    94       26           3
    94       28           0
    94       29           0
    94       30           2
    94       34           1
    94       43           3
    94       51           3
    94       75           2
    94       91           0
    94      100           0
    95       16           0
    95       22           4
    95       23           4
    95       29           0
    95       37           2
    95       40           4
    95       58           1
    95       69           2
    95       72           4
    95       75           4
    95       80           0
    95       84           1
    95       88           4
    95       89           2
    96       12           1
    96       16           0
    96       24           1
    96       27           1
    96       40           0
    96       45           1
    96       46           4
    96       66           2
    96       68           2
    96       72           4
    96       99           2
    97        1           1
    97        6           2
    97       10           4
    97       14           4
    97       15           1
    97       25           2
    97       42           3
    97       50           0
    97       58           3
    97       64           0
    97       69           1
    97       70           2
    98       10           3
    98       30           2
    98       38           4
    98       42           4
    99       33           0
    99       37           3
    99       49           3
    99       80           1
    99       94           3
   100        4           3
   100        5           4
   100       20           0
   100       29           3
   100       58           2
